\ This file has been generated by DOcplex
\ ENCODING=ISO-8859-1
\Problem name: random_problem.lp

Minimize
 obj: 30 x0 + 63 x1 + 49 x2 + 24 x3 + 50 x4 + 88 x5 + 46 x6 + 57 x7 + 56 x8
      + 97 x9 + 98 x10 + 3 x11 + 67 x12 + 63 x13 + 86 x14 + 32 x15 + 53 x16
      + 14 x17 + 64 x18
Subject To
 c0: x1 + x2 = 1
 c1: x2 + x8 + x14 + x17 = 1
 c2: x0 + x2 + x4 + x7 + x16 + x18 = 1
 c3: x3 + x4 + x6 + x8 + x9 + x10 + x11 + x12 + x14 + x15 + x16 = 1
 c4: x13 + x17 + x18 = 1
 c5: x4 + x5 + x9 + x11 + x12 + x14 = 1

Bounds
 0 <= x0 <= 1
 0 <= x1 <= 1
 0 <= x2 <= 1
 0 <= x3 <= 1
 0 <= x4 <= 1
 0 <= x5 <= 1
 0 <= x6 <= 1
 0 <= x7 <= 1
 0 <= x8 <= 1
 0 <= x9 <= 1
 0 <= x10 <= 1
 0 <= x11 <= 1
 0 <= x12 <= 1
 0 <= x13 <= 1
 0 <= x14 <= 1
 0 <= x15 <= 1
 0 <= x16 <= 1
 0 <= x17 <= 1
 0 <= x18 <= 1

Binaries
 x0 x1 x2 x3 x4 x5 x6 x7 x8 x9 x10 x11 x12 x13 x14 x15 x16 x17 x18
End
